c WMC file for PBN ISCAS/c880_distill_ISCAS/c880_miter written by probABC
p cnf 539 1218
68 -6 -16 0
-68 6 0
-68 16 0
74 -1 -2 0
-74 1 0
-74 2 0
75 -3 -74 0
-75 3 0
-75 74 0
77 -1 -5 0
-77 1 0
-77 5 0
81 -11 -16 0
-81 11 0
-81 16 0
89 -9 -77 0
-89 9 0
-89 77 0
90 -10 -75 0
-90 10 0
-90 75 0
97 -24 -25 0
-97 24 0
-97 25 0
98 24 25 0
-98 -24 0
-98 -25 0
99 97 98 0
-99 -97 0
-99 -98 0
100 -26 -27 0
-100 26 0
-100 27 0
101 26 27 0
-101 -26 0
-101 -27 0
102 100 101 0
-102 -100 0
-102 -101 0
103 99 102 0
-103 -99 0
-103 -102 0
104 -99 -102 0
-104 99 0
-104 102 0
105 103 104 0
-105 -103 0
-105 -104 0
106 -32 -105 0
-106 32 0
-106 105 0
107 32 105 0
-107 -32 0
-107 -105 0
108 -61 107 0
-108 61 0
-108 -107 0
109 61 -107 0
-109 -61 0
-109 107 0
110 108 109 0
-110 -108 0
-110 -109 0
111 106 -110 0
-111 -106 0
-111 110 0
112 -28 -29 0
-112 28 0
-112 29 0
113 28 29 0
-113 -28 0
-113 -29 0
114 112 113 0
-114 -112 0
-114 -113 0
115 -30 -31 0
-115 30 0
-115 31 0
116 30 31 0
-116 -30 0
-116 -31 0
117 115 116 0
-117 -115 0
-117 -116 0
118 114 117 0
-118 -114 0
-118 -117 0
119 -114 -117 0
-119 114 0
-119 117 0
120 118 119 0
-120 -118 0
-120 -119 0
121 -33 -120 0
-121 33 0
-121 120 0
122 33 120 0
-122 -33 0
-122 -120 0
123 121 122 0
-123 -121 0
-123 -122 0
124 111 123 0
-124 -111 0
-124 -123 0
125 -111 -123 0
-125 111 0
-125 123 0
126 124 125 0
-126 -124 0
-126 -125 0
155 -17 -68 0
-155 17 0
-155 68 0
156 -89 -155 0
-156 89 0
-156 155 0
157 -10 -156 0
-157 10 0
-157 156 0
158 60 -157 0
-158 -60 0
-158 157 0
159 -11 -40 0
-159 11 0
-159 40 0
160 -89 159 0
-160 89 0
-160 -159 0
161 -4 -160 0
-161 4 0
-161 160 0
162 -1 161 0
-162 1 0
-162 -161 0
163 -39 162 0
-163 39 0
-163 -162 0
164 4 8 0
-164 -4 0
-164 -8 0
165 -4 -8 0
-165 4 0
-165 8 0
166 164 165 0
-166 -164 0
-166 -165 0
167 -11 -166 0
-167 11 0
-167 166 0
168 -40 -167 0
-168 40 0
-168 167 0
169 -89 -168 0
-169 89 0
-169 168 0
170 -9 -74 0
-170 9 0
-170 74 0
171 -4 -170 0
-171 4 0
-171 170 0
172 -8 -81 0
-172 8 0
-172 81 0
173 -171 172 0
-173 171 0
-173 -172 0
174 169 173 0
-174 -169 0
-174 -173 0
175 -31 174 0
-175 31 0
-175 -174 0
176 163 175 0
-176 -163 0
-176 -175 0
177 158 -176 0
-177 -158 0
-177 176 0
178 48 -177 0
-178 -48 0
-178 177 0
179 -48 177 0
-179 48 0
-179 -177 0
192 -8 -11 0
-192 8 0
-192 11 0
193 -12 -192 0
-193 12 0
-193 192 0
194 -13 -193 0
-194 13 0
-194 193 0
195 -90 -194 0
-195 90 0
-195 194 0
196 -14 -195 0
-196 14 0
-196 195 0
201 -27 -50 0
-201 27 0
-201 50 0
202 -35 162 0
-202 35 0
-202 -162 0
203 -28 174 0
-203 28 0
-203 -174 0
204 202 203 0
-204 -202 0
-204 -203 0
205 158 -204 0
-205 -158 0
-205 204 0
206 45 -205 0
-206 -45 0
-206 205 0
207 -45 205 0
-207 45 0
-207 -205 0
208 206 207 0
-208 -206 0
-208 -207 0
209 -36 162 0
-209 36 0
-209 -162 0
210 -29 174 0
-210 29 0
-210 -174 0
211 209 210 0
-211 -209 0
-211 -210 0
212 158 -211 0
-212 -158 0
-212 211 0
213 -46 212 0
-213 46 0
-213 -212 0
214 46 -212 0
-214 -46 0
-214 212 0
215 -37 162 0
-215 37 0
-215 -162 0
216 -30 174 0
-216 30 0
-216 -174 0
217 215 216 0
-217 -215 0
-217 -216 0
218 158 -217 0
-218 -158 0
-218 217 0
219 -47 218 0
-219 47 0
-219 -218 0
220 -62 219 0
-220 62 0
-220 -219 0
221 62 -219 0
-221 -62 0
-221 219 0
222 220 221 0
-222 -220 0
-222 -221 0
223 214 222 0
-223 -214 0
-223 -222 0
224 47 -218 0
-224 -47 0
-224 218 0
225 214 224 0
-225 -214 0
-225 -224 0
226 -179 -225 0
-226 179 0
-226 225 0
227 178 -225 0
-227 -178 0
-227 225 0
228 -58 -227 0
-228 58 0
-228 227 0
229 213 223 0
-229 -213 0
-229 -223 0
230 226 -229 0
-230 -226 0
-230 229 0
231 228 -230 0
-231 -228 0
-231 230 0
232 208 -231 0
-232 -208 0
-232 231 0
233 -208 231 0
-233 208 0
-233 -231 0
234 232 233 0
-234 -232 0
-234 -233 0
235 -51 -234 0
-235 51 0
-235 234 0
236 201 235 0
-236 -201 0
-236 -235 0
237 -52 -208 0
-237 52 0
-237 208 0
238 -53 -207 0
-238 53 0
-238 207 0
239 237 238 0
-239 -237 0
-239 -238 0
240 -54 205 0
-240 54 0
-240 -205 0
241 -45 -196 0
-241 45 0
-241 196 0
242 240 241 0
-242 -240 0
-242 -241 0
243 -236 -239 0
-243 236 0
-243 239 0
244 -242 -243 0
-244 242 0
-244 243 0
245 -28 -50 0
-245 28 0
-245 50 0
246 213 214 0
-246 -213 0
-246 -214 0
247 -179 224 0
-247 179 0
-247 -224 0
248 178 224 0
-248 -178 0
-248 -224 0
249 -58 -248 0
-249 58 0
-249 248 0
250 -63 249 0
-250 63 0
-250 -249 0
251 63 -249 0
-251 -63 0
-251 249 0
252 250 251 0
-252 -250 0
-252 -251 0
253 -222 247 0
-253 222 0
-253 -247 0
254 -252 -253 0
-254 252 0
-254 253 0
255 246 -254 0
-255 -246 0
-255 254 0
256 -246 254 0
-256 246 0
-256 -254 0
257 255 256 0
-257 -255 0
-257 -256 0
258 -51 -257 0
-258 51 0
-258 257 0
259 245 258 0
-259 -245 0
-259 -258 0
260 -52 -246 0
-260 52 0
-260 246 0
261 -53 -213 0
-261 53 0
-261 213 0
262 260 261 0
-262 -260 0
-262 -261 0
263 -55 -56 0
-263 55 0
-263 56 0
264 -54 212 0
-264 54 0
-264 -212 0
265 263 264 0
-265 -263 0
-265 -264 0
266 -46 -196 0
-266 46 0
-266 196 0
267 -259 -262 0
-267 259 0
-267 262 0
268 -265 -267 0
-268 265 0
-268 267 0
269 266 -268 0
-269 -266 0
-269 268 0
270 -29 -50 0
-270 29 0
-270 50 0
271 -222 224 0
-271 222 0
-271 -224 0
272 -58 178 0
-272 58 0
-272 -178 0
273 179 272 0
-273 -179 0
-273 -272 0
274 271 -273 0
-274 -271 0
-274 273 0
275 -271 273 0
-275 271 0
-275 -273 0
276 274 275 0
-276 -274 0
-276 -275 0
277 -51 -276 0
-277 51 0
-277 276 0
278 270 277 0
-278 -270 0
-278 -277 0
279 -52 -271 0
-279 52 0
-279 271 0
280 -53 222 0
-280 53 0
-280 -222 0
281 279 280 0
-281 -279 0
-281 -280 0
282 -64 281 0
-282 64 0
-282 -281 0
283 64 -281 0
-283 -64 0
-283 281 0
284 282 283 0
-284 -282 0
-284 -283 0
285 -55 -57 0
-285 55 0
-285 57 0
286 -54 218 0
-286 54 0
-286 -218 0
287 285 286 0
-287 -285 0
-287 -286 0
288 -47 -196 0
-288 47 0
-288 196 0
289 -278 284 0
-289 278 0
-289 -284 0
290 -287 -289 0
-290 287 0
-290 289 0
291 288 -290 0
-291 -288 0
-291 290 0
292 -2 -34 0
-292 2 0
-292 34 0
293 -24 174 0
-293 24 0
-293 -174 0
294 292 293 0
-294 -292 0
-294 -293 0
295 -10 -160 0
-295 10 0
-295 160 0
296 -35 -295 0
-296 35 0
-296 295 0
297 -4 -89 0
-297 4 0
-297 89 0
298 -155 -297 0
-298 155 0
-298 297 0
299 60 -298 0
-299 -60 0
-299 298 0
300 296 299 0
-300 -296 0
-300 -299 0
301 -294 -300 0
-301 294 0
-301 300 0
302 -41 301 0
-302 41 0
-302 -301 0
303 -9 -34 0
-303 9 0
-303 34 0
304 -25 174 0
-304 25 0
-304 -174 0
305 303 304 0
-305 -303 0
-305 -304 0
306 -36 -295 0
-306 36 0
-306 295 0
307 299 306 0
-307 -299 0
-307 -306 0
308 -65 307 0
-308 65 0
-308 -307 0
309 65 -307 0
-309 -65 0
-309 307 0
310 308 309 0
-310 -308 0
-310 -309 0
311 -305 310 0
-311 305 0
-311 -310 0
312 -42 311 0
-312 42 0
-312 -311 0
313 42 -311 0
-313 -42 0
-313 311 0
314 -4 -34 0
-314 4 0
-314 34 0
315 -26 174 0
-315 26 0
-315 -174 0
316 314 315 0
-316 -314 0
-316 -315 0
317 -37 -295 0
-317 37 0
-317 295 0
318 299 317 0
-318 -299 0
-318 -317 0
319 -316 -318 0
-319 316 0
-319 318 0
320 -43 319 0
-320 43 0
-320 -319 0
321 313 -320 0
-321 -313 0
-321 320 0
322 43 -319 0
-322 -43 0
-322 319 0
323 -34 -38 0
-323 34 0
-323 38 0
324 -27 174 0
-324 27 0
-324 -174 0
325 323 324 0
-325 -323 0
-325 -324 0
326 -39 -295 0
-326 39 0
-326 295 0
327 299 326 0
-327 -299 0
-327 -326 0
328 -325 -327 0
-328 325 0
-328 327 0
329 -44 328 0
-329 44 0
-329 -328 0
330 313 322 0
-330 -313 0
-330 -322 0
331 -329 -330 0
-331 329 0
-331 330 0
332 44 -328 0
-332 -44 0
-332 328 0
333 206 231 0
-333 -206 0
-333 -231 0
334 207 333 0
-334 -207 0
-334 -333 0
335 -330 332 0
-335 330 0
-335 -332 0
336 334 -335 0
-336 -334 0
-336 335 0
337 312 321 0
-337 -312 0
-337 -321 0
338 331 -337 0
-338 -331 0
-338 337 0
339 336 -338 0
-339 -336 0
-339 338 0
340 41 -301 0
-340 -41 0
-340 301 0
341 339 340 0
-341 -339 0
-341 -340 0
342 302 341 0
-342 -302 0
-342 -341 0
343 -26 -50 0
-343 26 0
-343 50 0
344 329 332 0
-344 -329 0
-344 -332 0
345 -334 344 0
-345 334 0
-345 -344 0
346 334 -344 0
-346 -334 0
-346 344 0
347 345 346 0
-347 -345 0
-347 -346 0
348 -51 -347 0
-348 51 0
-348 347 0
349 343 348 0
-349 -343 0
-349 -348 0
350 -52 -344 0
-350 52 0
-350 344 0
351 -53 -329 0
-351 53 0
-351 329 0
352 350 351 0
-352 -350 0
-352 -351 0
353 -54 328 0
-353 54 0
-353 -328 0
354 -44 -196 0
-354 44 0
-354 196 0
355 353 354 0
-355 -353 0
-355 -354 0
356 -349 -352 0
-356 349 0
-356 352 0
357 -355 -356 0
-357 355 0
-357 356 0
358 -50 -60 0
-358 50 0
-358 60 0
359 302 340 0
-359 -302 0
-359 -340 0
360 -339 359 0
-360 339 0
-360 -359 0
361 339 -359 0
-361 -339 0
-361 359 0
362 360 361 0
-362 -360 0
-362 -361 0
363 -51 -362 0
-363 51 0
-363 362 0
364 358 363 0
-364 -358 0
-364 -363 0
365 -52 -359 0
-365 52 0
-365 359 0
366 -53 -302 0
-366 53 0
-366 302 0
367 365 366 0
-367 -365 0
-367 -366 0
368 -54 301 0
-368 54 0
-368 -301 0
369 -41 -196 0
-369 41 0
-369 196 0
370 368 369 0
-370 -368 0
-370 -369 0
371 -364 -367 0
-371 364 0
-371 367 0
372 -370 -371 0
-372 370 0
-372 371 0
373 -24 -50 0
-373 24 0
-373 50 0
374 312 313 0
-374 -312 0
-374 -313 0
375 322 -329 0
-375 -322 0
-375 329 0
376 322 332 0
-376 -322 0
-376 -332 0
377 334 -376 0
-377 -334 0
-377 376 0
378 320 375 0
-378 -320 0
-378 -375 0
379 377 -378 0
-379 -377 0
-379 378 0
380 374 -379 0
-380 -374 0
-380 379 0
381 -374 379 0
-381 374 0
-381 -379 0
382 380 381 0
-382 -380 0
-382 -381 0
383 -51 -382 0
-383 51 0
-383 382 0
384 373 383 0
-384 -373 0
-384 -383 0
385 -52 -374 0
-385 52 0
-385 374 0
386 -53 -312 0
-386 53 0
-386 312 0
387 385 386 0
-387 -385 0
-387 -386 0
388 -54 311 0
-388 54 0
-388 -311 0
389 -42 -196 0
-389 42 0
-389 196 0
390 388 389 0
-390 -388 0
-390 -389 0
391 -384 -387 0
-391 384 0
-391 387 0
392 -390 -391 0
-392 390 0
-392 391 0
393 -25 -50 0
-393 25 0
-393 50 0
394 320 322 0
-394 -320 0
-394 -322 0
395 332 334 0
-395 -332 0
-395 -334 0
396 329 395 0
-396 -329 0
-396 -395 0
397 394 -396 0
-397 -394 0
-397 396 0
398 -394 396 0
-398 394 0
-398 -396 0
399 397 398 0
-399 -397 0
-399 -398 0
400 -51 -399 0
-400 51 0
-400 399 0
401 393 400 0
-401 -393 0
-401 -400 0
402 -52 -394 0
-402 52 0
-402 394 0
403 -66 402 0
-403 66 0
-403 -402 0
404 66 -402 0
-404 -66 0
-404 402 0
405 403 404 0
-405 -403 0
-405 -404 0
406 -53 -320 0
-406 53 0
-406 320 0
407 -405 406 0
-407 405 0
-407 -406 0
408 -54 319 0
-408 54 0
-408 -319 0
409 -43 -196 0
-409 43 0
-409 196 0
410 408 409 0
-410 -408 0
-410 -409 0
411 -401 -407 0
-411 401 0
-411 407 0
412 -410 -411 0
-412 410 0
-412 411 0
413 106 107 0
-413 -106 0
-413 -107 0
414 123 413 0
-414 -123 0
-414 -413 0
415 -123 -413 0
-415 123 0
-415 413 0
416 414 415 0
-416 -414 0
-416 -415 0
417 214 -219 0
-417 -214 0
-417 219 0
418 213 417 0
-418 -213 0
-418 -417 0
419 226 -418 0
-419 -226 0
-419 418 0
420 228 -419 0
-420 -228 0
-420 419 0
421 208 -420 0
-421 -208 0
-421 420 0
422 -208 420 0
-422 208 0
-422 -420 0
423 421 422 0
-423 -421 0
-423 -422 0
424 -51 -423 0
-424 51 0
-424 423 0
425 201 424 0
-425 -201 0
-425 -424 0
426 -239 -425 0
-426 239 0
-426 425 0
427 -242 -426 0
-427 242 0
-427 426 0
428 219 247 0
-428 -219 0
-428 -247 0
429 249 -428 0
-429 -249 0
-429 428 0
430 246 -429 0
-430 -246 0
-430 429 0
431 -246 429 0
-431 246 0
-431 -429 0
432 430 431 0
-432 -430 0
-432 -431 0
433 -51 -432 0
-433 51 0
-433 432 0
434 245 433 0
-434 -245 0
-434 -433 0
435 -262 -434 0
-435 262 0
-435 434 0
436 -265 -435 0
-436 265 0
-436 435 0
437 266 -436 0
-437 -266 0
-437 436 0
438 219 224 0
-438 -219 0
-438 -224 0
439 -273 438 0
-439 273 0
-439 -438 0
440 273 -438 0
-440 -273 0
-440 438 0
441 439 440 0
-441 -439 0
-441 -440 0
442 -51 -441 0
-442 51 0
-442 441 0
443 270 442 0
-443 -270 0
-443 -442 0
444 -52 -438 0
-444 52 0
-444 438 0
445 -53 -219 0
-445 53 0
-445 219 0
446 444 445 0
-446 -444 0
-446 -445 0
447 -443 -446 0
-447 443 0
-447 446 0
448 -287 -447 0
-448 287 0
-448 447 0
449 288 -448 0
-449 -288 0
-449 448 0
450 -305 -307 0
-450 305 0
-450 307 0
451 -42 450 0
-451 42 0
-451 -450 0
452 42 -450 0
-452 -42 0
-452 450 0
453 -320 452 0
-453 320 0
-453 -452 0
454 322 452 0
-454 -322 0
-454 -452 0
455 -329 -454 0
-455 329 0
-455 454 0
456 206 420 0
-456 -206 0
-456 -420 0
457 207 456 0
-457 -207 0
-457 -456 0
458 332 -454 0
-458 -332 0
-458 454 0
459 457 -458 0
-459 -457 0
-459 458 0
460 451 453 0
-460 -451 0
-460 -453 0
461 455 -460 0
-461 -455 0
-461 460 0
462 459 -461 0
-462 -459 0
-462 461 0
463 340 462 0
-463 -340 0
-463 -462 0
464 302 463 0
-464 -302 0
-464 -463 0
465 344 -457 0
-465 -344 0
-465 457 0
466 -344 457 0
-466 344 0
-466 -457 0
467 465 466 0
-467 -465 0
-467 -466 0
468 -51 -467 0
-468 51 0
-468 467 0
469 343 468 0
-469 -343 0
-469 -468 0
470 -352 -469 0
-470 352 0
-470 469 0
471 -355 -470 0
-471 355 0
-471 470 0
472 359 -462 0
-472 -359 0
-472 462 0
473 -359 462 0
-473 359 0
-473 -462 0
474 472 473 0
-474 -472 0
-474 -473 0
475 -51 -474 0
-475 51 0
-475 474 0
476 358 475 0
-476 -358 0
-476 -475 0
477 -367 -476 0
-477 367 0
-477 476 0
478 -370 -477 0
-478 370 0
-478 477 0
479 451 452 0
-479 -451 0
-479 -452 0
480 -376 457 0
-480 376 0
-480 -457 0
481 -378 480 0
-481 378 0
-481 -480 0
482 479 -481 0
-482 -479 0
-482 481 0
483 -479 481 0
-483 479 0
-483 -481 0
484 482 483 0
-484 -482 0
-484 -483 0
485 -51 -484 0
-485 51 0
-485 484 0
486 373 485 0
-486 -373 0
-486 -485 0
487 -52 -479 0
-487 52 0
-487 479 0
488 -53 -451 0
-488 53 0
-488 451 0
489 487 488 0
-489 -487 0
-489 -488 0
490 -54 450 0
-490 54 0
-490 -450 0
491 389 490 0
-491 -389 0
-491 -490 0
492 -486 -489 0
-492 486 0
-492 489 0
493 -491 -492 0
-493 491 0
-493 492 0
494 332 457 0
-494 -332 0
-494 -457 0
495 329 494 0
-495 -329 0
-495 -494 0
496 394 -495 0
-496 -394 0
-496 495 0
497 -394 495 0
-497 394 0
-497 -495 0
498 496 497 0
-498 -496 0
-498 -497 0
499 -51 -498 0
-499 51 0
-499 498 0
500 393 499 0
-500 -393 0
-500 -499 0
501 402 406 0
-501 -402 0
-501 -406 0
502 -500 -501 0
-502 500 0
-502 501 0
503 -410 -502 0
-503 410 0
-503 502 0
504 126 -416 0
-504 -126 0
-504 416 0
505 -126 416 0
-505 126 0
-505 -416 0
506 504 505 0
-506 -504 0
-506 -505 0
507 -244 427 0
-507 244 0
-507 -427 0
508 244 -427 0
-508 -244 0
-508 427 0
509 507 508 0
-509 -507 0
-509 -508 0
510 -269 437 0
-510 269 0
-510 -437 0
511 269 -437 0
-511 -269 0
-511 437 0
512 510 511 0
-512 -510 0
-512 -511 0
513 -291 449 0
-513 291 0
-513 -449 0
514 291 -449 0
-514 -291 0
-514 449 0
515 513 514 0
-515 -513 0
-515 -514 0
516 -342 464 0
-516 342 0
-516 -464 0
517 342 -464 0
-517 -342 0
-517 464 0
518 516 517 0
-518 -516 0
-518 -517 0
519 -357 471 0
-519 357 0
-519 -471 0
520 357 -471 0
-520 -357 0
-520 471 0
521 519 520 0
-521 -519 0
-521 -520 0
522 -372 478 0
-522 372 0
-522 -478 0
523 372 -478 0
-523 -372 0
-523 478 0
524 522 523 0
-524 -522 0
-524 -523 0
525 -392 493 0
-525 392 0
-525 -493 0
526 392 -493 0
-526 -392 0
-526 493 0
527 525 526 0
-527 -525 0
-527 -526 0
528 -412 503 0
-528 412 0
-528 -503 0
529 412 -503 0
-529 -412 0
-529 503 0
530 528 529 0
-530 -528 0
-530 -529 0
531 -506 -509 0
-531 506 0
-531 509 0
532 -515 -518 0
-532 515 0
-532 518 0
533 -512 -532 0
-533 512 0
-533 532 0
534 -521 -524 0
-534 521 0
-534 524 0
535 -527 -530 0
-535 527 0
-535 530 0
536 -534 -535 0
-536 534 0
-536 535 0
537 -533 -536 0
-537 533 0
-537 536 0
538 -531 -537 0
-538 531 0
-538 537 0
67 538 0
-67 -538 0
67 0
w 1 0.500000
w 2 0.500000
w 3 0.500000
w 4 0.500000
w 5 0.500000
w 6 0.500000
w 7 0.500000
w 8 0.500000
w 9 0.500000
w 10 0.500000
w 11 0.500000
w 12 0.500000
w 13 0.500000
w 14 0.500000
w 15 0.500000
w 16 0.500000
w 17 0.500000
w 18 0.500000
w 19 0.500000
w 20 0.500000
w 21 0.500000
w 22 0.500000
w 23 0.500000
w 24 0.500000
w 25 0.500000
w 26 0.500000
w 27 0.500000
w 28 0.500000
w 29 0.500000
w 30 0.500000
w 31 0.500000
w 32 0.500000
w 33 0.500000
w 34 0.500000
w 35 0.500000
w 36 0.500000
w 37 0.500000
w 38 0.500000
w 39 0.500000
w 40 0.500000
w 41 0.500000
w 42 0.500000
w 43 0.500000
w 44 0.500000
w 45 0.500000
w 46 0.500000
w 47 0.500000
w 48 0.500000
w 49 0.500000
w 50 0.500000
w 51 0.500000
w 52 0.500000
w 53 0.500000
w 54 0.500000
w 55 0.500000
w 56 0.500000
w 57 0.500000
w 58 0.500000
w 59 0.500000
w 60 0.500000
w 61 0.125000
w 62 0.125000
w 63 0.125000
w 64 0.125000
w 65 0.125000
w 66 0.125000
w 68 -1
w 74 -1
w 75 -1
w 77 -1
w 81 -1
w 89 -1
w 90 -1
w 97 -1
w 98 -1
w 99 -1
w 100 -1
w 101 -1
w 102 -1
w 103 -1
w 104 -1
w 105 -1
w 106 -1
w 107 -1
w 108 -1
w 109 -1
w 110 -1
w 111 -1
w 112 -1
w 113 -1
w 114 -1
w 115 -1
w 116 -1
w 117 -1
w 118 -1
w 119 -1
w 120 -1
w 121 -1
w 122 -1
w 123 -1
w 124 -1
w 125 -1
w 126 -1
w 155 -1
w 156 -1
w 157 -1
w 158 -1
w 159 -1
w 160 -1
w 161 -1
w 162 -1
w 163 -1
w 164 -1
w 165 -1
w 166 -1
w 167 -1
w 168 -1
w 169 -1
w 170 -1
w 171 -1
w 172 -1
w 173 -1
w 174 -1
w 175 -1
w 176 -1
w 177 -1
w 178 -1
w 179 -1
w 192 -1
w 193 -1
w 194 -1
w 195 -1
w 196 -1
w 201 -1
w 202 -1
w 203 -1
w 204 -1
w 205 -1
w 206 -1
w 207 -1
w 208 -1
w 209 -1
w 210 -1
w 211 -1
w 212 -1
w 213 -1
w 214 -1
w 215 -1
w 216 -1
w 217 -1
w 218 -1
w 219 -1
w 220 -1
w 221 -1
w 222 -1
w 223 -1
w 224 -1
w 225 -1
w 226 -1
w 227 -1
w 228 -1
w 229 -1
w 230 -1
w 231 -1
w 232 -1
w 233 -1
w 234 -1
w 235 -1
w 236 -1
w 237 -1
w 238 -1
w 239 -1
w 240 -1
w 241 -1
w 242 -1
w 243 -1
w 244 -1
w 245 -1
w 246 -1
w 247 -1
w 248 -1
w 249 -1
w 250 -1
w 251 -1
w 252 -1
w 253 -1
w 254 -1
w 255 -1
w 256 -1
w 257 -1
w 258 -1
w 259 -1
w 260 -1
w 261 -1
w 262 -1
w 263 -1
w 264 -1
w 265 -1
w 266 -1
w 267 -1
w 268 -1
w 269 -1
w 270 -1
w 271 -1
w 272 -1
w 273 -1
w 274 -1
w 275 -1
w 276 -1
w 277 -1
w 278 -1
w 279 -1
w 280 -1
w 281 -1
w 282 -1
w 283 -1
w 284 -1
w 285 -1
w 286 -1
w 287 -1
w 288 -1
w 289 -1
w 290 -1
w 291 -1
w 292 -1
w 293 -1
w 294 -1
w 295 -1
w 296 -1
w 297 -1
w 298 -1
w 299 -1
w 300 -1
w 301 -1
w 302 -1
w 303 -1
w 304 -1
w 305 -1
w 306 -1
w 307 -1
w 308 -1
w 309 -1
w 310 -1
w 311 -1
w 312 -1
w 313 -1
w 314 -1
w 315 -1
w 316 -1
w 317 -1
w 318 -1
w 319 -1
w 320 -1
w 321 -1
w 322 -1
w 323 -1
w 324 -1
w 325 -1
w 326 -1
w 327 -1
w 328 -1
w 329 -1
w 330 -1
w 331 -1
w 332 -1
w 333 -1
w 334 -1
w 335 -1
w 336 -1
w 337 -1
w 338 -1
w 339 -1
w 340 -1
w 341 -1
w 342 -1
w 343 -1
w 344 -1
w 345 -1
w 346 -1
w 347 -1
w 348 -1
w 349 -1
w 350 -1
w 351 -1
w 352 -1
w 353 -1
w 354 -1
w 355 -1
w 356 -1
w 357 -1
w 358 -1
w 359 -1
w 360 -1
w 361 -1
w 362 -1
w 363 -1
w 364 -1
w 365 -1
w 366 -1
w 367 -1
w 368 -1
w 369 -1
w 370 -1
w 371 -1
w 372 -1
w 373 -1
w 374 -1
w 375 -1
w 376 -1
w 377 -1
w 378 -1
w 379 -1
w 380 -1
w 381 -1
w 382 -1
w 383 -1
w 384 -1
w 385 -1
w 386 -1
w 387 -1
w 388 -1
w 389 -1
w 390 -1
w 391 -1
w 392 -1
w 393 -1
w 394 -1
w 395 -1
w 396 -1
w 397 -1
w 398 -1
w 399 -1
w 400 -1
w 401 -1
w 402 -1
w 403 -1
w 404 -1
w 405 -1
w 406 -1
w 407 -1
w 408 -1
w 409 -1
w 410 -1
w 411 -1
w 412 -1
w 413 -1
w 414 -1
w 415 -1
w 416 -1
w 417 -1
w 418 -1
w 419 -1
w 420 -1
w 421 -1
w 422 -1
w 423 -1
w 424 -1
w 425 -1
w 426 -1
w 427 -1
w 428 -1
w 429 -1
w 430 -1
w 431 -1
w 432 -1
w 433 -1
w 434 -1
w 435 -1
w 436 -1
w 437 -1
w 438 -1
w 439 -1
w 440 -1
w 441 -1
w 442 -1
w 443 -1
w 444 -1
w 445 -1
w 446 -1
w 447 -1
w 448 -1
w 449 -1
w 450 -1
w 451 -1
w 452 -1
w 453 -1
w 454 -1
w 455 -1
w 456 -1
w 457 -1
w 458 -1
w 459 -1
w 460 -1
w 461 -1
w 462 -1
w 463 -1
w 464 -1
w 465 -1
w 466 -1
w 467 -1
w 468 -1
w 469 -1
w 470 -1
w 471 -1
w 472 -1
w 473 -1
w 474 -1
w 475 -1
w 476 -1
w 477 -1
w 478 -1
w 479 -1
w 480 -1
w 481 -1
w 482 -1
w 483 -1
w 484 -1
w 485 -1
w 486 -1
w 487 -1
w 488 -1
w 489 -1
w 490 -1
w 491 -1
w 492 -1
w 493 -1
w 494 -1
w 495 -1
w 496 -1
w 497 -1
w 498 -1
w 499 -1
w 500 -1
w 501 -1
w 502 -1
w 503 -1
w 504 -1
w 505 -1
w 506 -1
w 507 -1
w 508 -1
w 509 -1
w 510 -1
w 511 -1
w 512 -1
w 513 -1
w 514 -1
w 515 -1
w 516 -1
w 517 -1
w 518 -1
w 519 -1
w 520 -1
w 521 -1
w 522 -1
w 523 -1
w 524 -1
w 525 -1
w 526 -1
w 527 -1
w 528 -1
w 529 -1
w 530 -1
w 531 -1
w 532 -1
w 533 -1
w 534 -1
w 535 -1
w 536 -1
w 537 -1
w 538 -1
w 67 -1
